20
8	241	187	59	49
1	190	189	27	42
17	106	220	45	7
8	160	205	4	54
12	217	169	76	48
17	269	213	21	86
14	269	216	24	100
19	251	186	46	82
28	75	186	14	37
21	79	248	24	59
24	229	268	75	30
7	254	208	27	51
16	128	241	84	93
6	270	221	1	67
12	131	253	20	35
26	125	269	22	31
4	254	210	16	13
1	3	217	41	41
9	25	169	4	78
20	27	225	36	15
